% seed = 3874317

mint = 31;
% maxt = 95;

nActs = 22;
dur = [0,7,9,4,2,7,7,1,4,9,8,3,4,3,1,6,1,6,3,3,7,0];

nSkills = 4;
sreq = [| 0,0,0,0,
	| 3,0,0,2,
	| 2,0,3,0,
	| 2,0,1,0,
	| 3,0,1,0,
	| 2,0,2,0,
	| 2,0,3,0,
	| 0,0,3,2,
	| 3,0,0,2,
	| 3,0,1,0,
	| 0,2,1,0,
	| 0,3,0,3,
	| 0,3,0,1,
	| 0,2,0,1,
	| 0,3,1,0,
	| 0,1,1,0,
	| 0,0,2,2,
	| 1,0,1,0,
	| 0,0,2,1,
	| 2,0,0,2,
	| 3,0,2,0,
	| 0,0,0,0, |];

nResources = 10;
mastery = [| true,true,false,true,
	| true,true,true,false,
	| false,false,true,false,
	| true,true,false,true,
	| false,true,false,false,
	| true,false,false,false,
	| true,true,true,false,
	| false,false,false,true,
	| true,false,true,true,
	| true,false,true,true, |];

nPrecs = 37;
pred = [1,1,1,2,2,2,3,3,3,4,4,4,5,5,5,6,7,7,8,9,9,10,10,10,11,12,12,13,14,15,16,17,18,18,19,20,21];
succ = [2,3,4,10,11,15,21,11,5,6,15,14,13,14,7,9,12,8,18,19,21,19,21,14,16,15,16,16,17,18,17,20,19,20,22,22,22];

nUnrels = 103;
unpred = [2,2,2,2,2,2,2,2,2,3,3,3,3,4,4,4,4,4,4,4,4,5,5,5,5,5,6,6,6,6,6,6,6,6,6,6,6,6,7,7,7,7,7,7,8,8,8,8,8,8,8,8,8,8,9,9,9,9,9,9,9,9,9,9,10,10,10,10,10,10,11,11,11,11,11,11,11,12,12,12,13,13,13,13,13,14,14,14,14,14,15,15,15,16,16,16,17,17,17,18,19,19,20];
unsucc = [3,4,5,6,7,8,9,12,13,4,6,9,10,5,7,8,10,11,12,13,16,6,9,10,11,21,7,8,10,11,12,13,14,15,16,17,18,20,9,10,11,13,14,21,9,10,11,12,13,14,15,16,17,21,10,11,12,13,14,15,16,17,18,20,11,12,13,15,16,18,12,13,14,15,18,19,21,13,14,21,14,15,18,19,21,15,16,18,19,21,16,17,21,18,19,21,18,19,21,21,20,21,21];

USEFUL_RES = [{},
	{1,2,4,6,7,8,9,10},
	{1,2,3,4,6,7,9,10},
	{1,2,3,4,6,7,9,10},
	{1,2,3,4,6,7,9,10},
	{1,2,3,4,6,7,9,10},
	{1,2,3,4,6,7,9,10},
	{1,2,3,4,7,8,9,10},
	{1,2,4,6,7,8,9,10},
	{1,2,3,4,6,7,9,10},
	{1,2,3,4,5,7,9,10},
	{1,2,4,5,7,8,9,10},
	{1,2,4,5,7,8,9,10},
	{1,2,4,5,7,8,9,10},
	{1,2,3,4,5,7,9,10},
	{1,2,3,4,5,7,9,10},
	{1,2,3,4,7,8,9,10},
	{1,2,3,4,6,7,9,10},
	{1,2,3,4,7,8,9,10},
	{1,2,4,6,7,8,9,10},
	{1,2,3,4,6,7,9,10},
	{}];

POTENTIAL_ACT = [{2,3,4,5,6,7,8,9,10,11,12,13,14,15,16,17,18,19,20,21},
	{2,3,4,5,6,7,8,9,10,11,12,13,14,15,16,17,18,19,20,21},
	{3,4,5,6,7,8,10,11,15,16,17,18,19,21},
	{2,3,4,5,6,7,8,9,10,11,12,13,14,15,16,17,18,19,20,21},
	{11,12,13,14,15,16},
	{2,3,4,5,6,7,9,10,18,20,21},
	{2,3,4,5,6,7,8,9,10,11,12,13,14,15,16,17,18,19,20,21},
	{2,8,9,12,13,14,17,19,20},
	{2,3,4,5,6,7,8,9,10,11,12,13,14,15,16,17,18,19,20,21},
	{2,3,4,5,6,7,8,9,10,11,12,13,14,15,16,17,18,19,20,21}];
